%%% static parameters %%%
timespan = 1;
Clients_N = [4000];
Demand_W = [15];
Lt0 = [4];
Lt1 = [4];
SS_ = [0.85];
DS_D = [20];
K = [200];
MA = [500];
HC = [0.05];
%%% dynamic parameters %%%
lost_ratio_sales_ret_th = 0.00088366060808786;
lost_ratio_sales_ret_w = 61;
lost_ratio_sales_dis_th = 0.000720660531285829;
lost_ratio_sales_dis_w = 95;
lost_ratio_sales_fac_th = 6.51130222533024e-05;
lost_ratio_sales_fac_w = 47;
stock_customer_MA_mean_relative_th = 0.6990654494496744;
stock_customer_MA_mean_relative_w = 90;
stock_distributor_MA_mean_relative_th = 0.09959608052341218;
stock_distributor_MA_mean_relative_w = 51;
stock_retailer_MA_mean_relative_th = 0.8904316753060552;
stock_retailer_MA_mean_relative_w = 22;
stock_factory_MA_mean_relative_th = 0.6893310840659251;
stock_factory_MA_mean_relative_w = 23;
